NAME: generated_10_sym_1_100_UniformDistrib_noSparse.tsp
TYPE: TSP
COMMENT: Test case generated with custom generator!
DIMENSION: 10
EDGE_WEIGHT_TYPE: EXPLICIT
EDGE_WEIGHT_FORMAT: FULL_MATRIX
DISPLAY_DATA_TYPE: TWOD_DISPLAY
EDGE_WEIGHT_SECTION
0 91 83 74 100 59 49 52 42 2 
91 0 78 70 39 11 43 14 48 99 
83 78 0 1 94 95 76 17 60 21 
74 70 1 0 15 61 37 81 49 5 
100 39 94 15 0 47 2 85 56 30 
59 11 95 61 47 0 43 80 10 23 
49 43 76 37 2 43 0 21 58 82 
52 14 17 81 85 80 21 0 28 51 
42 48 60 49 56 10 58 28 0 61 
2 99 21 5 30 23 82 51 61 0 
